p tw 57 67
1 2
2 13
3 4
3 6
4 5
5 6
5 11
6 7
7 8
7 11
8 9
8 11
9 10
10 35
11 12
12 14
13 24
14 15
15 16
16 17
16 18
17 18
17 21
18 19
19 20
20 21
21 22
22 23
23 25
24 35
25 26
26 27
26 42
27 28
28 29
28 42
29 30
30 31
30 42
31 32
32 33
33 34
34 36
35 46
36 37
37 38
38 39
39 40
40 41
41 23
42 43
43 44
43 48
44 45
45 47
46 54
47 50
48 49
49 50
50 51
51 52
52 53
54 55
55 56
56 57
56 11
57 3
